p tw 24 48
0 1
0 2
0 3
0 13
0 22
0 23
1 2
1 3
1 4
1 16
1 17
1 15
1 18
1 19
2 3
2 4
2 20
2 21
4 5
4 6
4 7
4 16
4 17
4 20
4 21
5 6
5 7
6 7
8 9
8 10
8 11
9 10
9 11
10 11
12 13
12 14
12 15
13 14
13 15
13 22
13 23
14 15
15 18
15 19
16 17
18 19
20 21
22 23
